Problem:    generic_allamvizsga
Rows:       15
Columns:    40 (40 integer, 40 binary)
Non-zeros:  120
Status:     INTEGER OPTIMAL
Objective:  TotalChocolates = 14 (MINimum)

   No.   Row name        Activity     Lower bound   Upper bound
------ ------------    ------------- ------------- -------------
     1 TotalChocolates
                                  14                             
     2 AssignEachSubject[T1]
                                   1             1             = 
     3 AssignEachSubject[T2]
                                   1             1             = 
     4 AssignEachSubject[T3]
                                   1             1             = 
     5 AssignEachSubject[T4]
                                   1             1             = 
     6 AssignEachSubject[T5]
                                   1             1             = 
     7 AssignEachSubject[T6]
                                   1             1             = 
     8 AssignEachSubject[T7]
                                   1             1             = 
     9 AssignEachSubject[T8]
                                   1             1             = 
    10 AssignEachSubject[T9]
                                   1             1             = 
    11 AssignEachSubject[T10]
                                   1             1             = 
    12 MaxSubjectsPerStudent[I]
                                   3                           3 
    13 MaxSubjectsPerStudent[K]
                                   3                           3 
    14 MaxSubjectsPerStudent[M]
                                   2                           3 
    15 MaxSubjectsPerStudent[G]
                                   2                           3 

   No. Column name       Activity     Lower bound   Upper bound
------ ------------    ------------- ------------- -------------
     1 x[I,T1]      *              1             0             1 
     2 x[I,T2]      *              0             0             1 
     3 x[I,T3]      *              0             0             1 
     4 x[I,T4]      *              0             0             1 
     5 x[I,T5]      *              1             0             1 
     6 x[I,T6]      *              0             0             1 
     7 x[I,T7]      *              0             0             1 
     8 x[I,T8]      *              0             0             1 
     9 x[I,T9]      *              1             0             1 
    10 x[I,T10]     *              0             0             1 
    11 x[K,T1]      *              0             0             1 
    12 x[K,T2]      *              1             0             1 
    13 x[K,T3]      *              0             0             1 
    14 x[K,T4]      *              1             0             1 
    15 x[K,T5]      *              0             0             1 
    16 x[K,T6]      *              0             0             1 
    17 x[K,T7]      *              1             0             1 
    18 x[K,T8]      *              0             0             1 
    19 x[K,T9]      *              0             0             1 
    20 x[K,T10]     *              0             0             1 
    21 x[M,T1]      *              0             0             1 
    22 x[M,T2]      *              0             0             1 
    23 x[M,T3]      *              0             0             1 
    24 x[M,T4]      *              0             0             1 
    25 x[M,T5]      *              0             0             1 
    26 x[M,T6]      *              1             0             1 
    27 x[M,T7]      *              0             0             1 
    28 x[M,T8]      *              1             0             1 
    29 x[M,T9]      *              0             0             1 
    30 x[M,T10]     *              0             0             1 
    31 x[G,T1]      *              0             0             1 
    32 x[G,T2]      *              0             0             1 
    33 x[G,T3]      *              1             0             1 
    34 x[G,T4]      *              0             0             1 
    35 x[G,T5]      *              0             0             1 
    36 x[G,T6]      *              0             0             1 
    37 x[G,T7]      *              0             0             1 
    38 x[G,T8]      *              0             0             1 
    39 x[G,T9]      *              0             0             1 
    40 x[G,T10]     *              1             0             1 

Integer feasibility conditions:

KKT.PE: max.abs.err = 0.00e+00 on row 0
        max.rel.err = 0.00e+00 on row 0
        High quality

KKT.PB: max.abs.err = 0.00e+00 on row 0
        max.rel.err = 0.00e+00 on row 0
        High quality

End of output
